17	4
15	14	16	16	
0	0	0	0	0	3	2	3	4	
9	10	8	4	7	3	13	17	17	
10	3	6	10	5	2	5	7	
1	2	2	8	6	1	6	
5	4	10	2	9	3	12	14	17	
225	5	10	5	5	3	8	17	17	
225	6	10	10	7	2	10	17	
150	5	6	7	6	2	9	11	
175	5	6	8	10	1	17	
150	4	7	1	9	2	15	16	
225	1	1	6	3	1	14	
200	2	8	5	7	1	17	
9	7	2	8	4	1	17	
7	4	4	9	7	2	17	17	
8	2	6	3	8	2	17	17	
1	5	1	1	5	2	17	17	
0	0	0	0	0	0	
